50
1000
627
600
598
588
551
543
536
518
509
503
487
484
472
468
463
461
424
417
405
401
397
369
369
356
340
339
324
304
272
269
250
225
217
183
168
162
156
155
147
132
125
117
115
114
114
95
77
71
69
48
